NAME: PointSet_Angle_25_8
TYPE: TSP
COMMENT: Points chosen discrete uniformly at random out of ${0, \ldots, 500}^2$.
DIMENSION: 25
EDGE_WEIGHT_TYPE: EUC_2D
NODE_COORD_SECTION
1 476 29
2 137 105
3 403 73
4 308 205
5 84 323
6 199 129
7 74 319
8 176 71
9 334 23
10 391 282
11 0 135
12 394 339
13 108 104
14 90 397
15 254 367
16 289 229
17 143 426
18 80 45
19 500 388
20 497 83
21 457 442
22 459 278
23 261 134
24 349 94
25 405 487
EOF
